c Sudoku solution
p cnf 729 0
218 0
232 0
293 0
321 0
335 0
343 0
369 0
413 0
522 0
558 0
576 0
597 0
619 0
627 0
636 0
645 0
716 0
733 0
123 0
226 0
139 0
771 0
848 0
168 0
872 0
912 0
894 0
924 0
975 0
673 0
563 0
996 0
961 0
279 0
949 0
459 0
589 0
515 0
428 0
474 0
431 0
534 0
541 0
811 0
837 0
938 0
177 0
114 0
317 0
378 0
392 0
883 0
987 0
788 0
799 0
725 0
829 0
953 0
698 0
681 0
191 0
251 0
757 0
482 0
495 0
142 0
744 0
762 0
247 0
446 0
467 0
652 0
664 0
354 0
265 0
156 0
185 0
284 0
386 0
855 0
866 0
